experiment/data/hgs-res/Vrp-Set-A-n48/Vrp-Set-A-n48-hgs/0.hgs1.vrp
NAME : 0
COMMENT : CVRP Instance
TYPE : CVRP
DIMENSION : 48
EDGE_WEIGHT_TYPE : EUC_2D
CAPACITY : 100
NODE_COORD_SECTION
1	47.0	5.0
2	1.0	19.0
3	97.0	35.0
4	23.0	79.0
5	77.0	87.0
6	3.0	9.0
7	5.0	27.0
8	41.0	53.0
9	51.0	87.0
10	67.0	73.0
11	89.0	45.0
12	71.0	99.0
13	11.0	1.0
14	85.0	85.0
15	57.0	11.0
16	57.0	85.0
17	71.0	33.0
18	61.0	13.0
19	39.0	15.0
20	13.0	59.0
21	43.0	99.0
22	87.0	73.0
23	11.0	37.0
24	21.0	11.0
25	77.0	81.0
26	3.0	63.0
27	47.0	95.0
28	53.0	75.0
29	73.0	55.0
30	81.0	71.0
31	89.0	75.0
32	11.0	9.0
33	27.0	37.0
34	95.0	59.0
35	63.0	63.0
36	37.0	21.0
37	33.0	47.0
38	23.0	63.0
39	13.0	55.0
40	47.0	93.0
41	45.0	43.0
42	83.0	7.0
43	69.0	91.0
44	13.0	11.0
45	37.0	15.0
46	53.0	59.0
47	97.0	83.0
48	75.0	31.0
DEMAND_SECTION
1	0
2	20
3	14
4	5
5	11
6	22
7	25
8	2
9	18
10	10
11	26
12	14
13	22
14	9
15	11
16	18
17	24
18	15
19	23
20	16
21	14
22	8
23	5
24	12
25	8
26	16
27	12
28	15
29	9
30	2
31	10
32	2
33	3
34	20
35	3
36	13
37	25
38	23
39	8
40	16
41	9
42	14
43	4
44	13
45	7
46	16
47	18
48	16
DEPOT_SECTION
1
-1
EOF
