experiment/data/hgs-res/Vrp-Set-A-n48/Vrp-Set-A-n48-hgs/0.hgs1.log
=========== Algorithm Parameters =================
---- nbGranular        is set to 20
---- mu                is set to 25
---- lambda            is set to 40
---- nbElite           is set to 4
---- nbClose           is set to 5
---- targetFeasible    is set to 0.2
---- seed              is set to 1234
---- nbIter            is set to 20000
---- timeLimit         is set to 0
---- useSwapStar       is set to 1
==================================================
----- READING INSTANCE: baseline_results/cvrp_hgs/Vrp-Set-A-n48/Vrp-Set-A-n48-hgs/0.hgs1.vrp
----- FLEET SIZE WAS NOT SPECIFIED: DEFAULT INITIALIZATION TO 12 VEHICLES
----- INSTANCE SUCCESSFULLY LOADED WITH 47 CLIENTS AND 12 VEHICLES
----- BUILDING INITIAL POPULATION
----- STARTING GENETIC ALGORITHM
It      0      2 | T(s) 0.05 | Feas 40 1074.34 1106.54 | Inf 29 1084.49 1111.13 | Div 0.44 0.48 | Feas 0.71 1.00 | Pen 3.91 0.85
It    500    502 | T(s) 0.24 | Feas 55 1074.34 1087.00 | Inf 32 1073.18 1087.10 | Div 0.31 0.42 | Feas 0.17 1.00 | Pen 2.04 0.38
It   1000   1002 | T(s) 0.41 | Feas 36 1074.34 1094.12 | Inf 34 1073.18 1085.01 | Div 0.43 0.42 | Feas 0.20 1.00 | Pen 2.04 0.17
It   1500   1502 | T(s) 0.58 | Feas 42 1074.34 1089.33 | Inf 54 1071.69 1074.67 | Div 0.38 0.32 | Feas 0.26 1.00 | Pen 1.77 0.10
It   2000   2002 | T(s) 0.75 | Feas 25 1074.34 1107.20 | Inf 46 1072.46 1076.73 | Div 0.52 0.37 | Feas 0.29 1.00 | Pen 1.81 0.10
It   2500   2502 | T(s) 0.92 | Feas 25 1074.34 1106.18 | Inf 43 1073.51 1081.00 | Div 0.52 0.32 | Feas 0.24 1.00 | Pen 2.21 0.10
It   3000   3002 | T(s) 1.09 | Feas 60 1074.34 1085.40 | Inf 47 1073.69 1084.94 | Div 0.30 0.34 | Feas 0.05 1.00 | Pen 2.30 0.10
It   3500   3502 | T(s) 1.25 | Feas 62 1074.34 1086.48 | Inf 46 1070.05 1074.87 | Div 0.28 0.37 | Feas 0.34 1.00 | Pen 1.69 0.10
It   4000   4002 | T(s) 1.42 | Feas 47 1074.34 1085.83 | Inf 42 1073.16 1081.42 | Div 0.32 0.37 | Feas 0.25 1.00 | Pen 2.03 0.10
It   4500   4502 | T(s) 1.60 | Feas 47 1074.34 1090.89 | Inf 28 1073.24 1087.74 | Div 0.37 0.45 | Feas 0.23 1.00 | Pen 2.07 0.10
It   5000   5002 | T(s) 1.78 | Feas 55 1074.34 1081.62 | Inf 26 1073.32 1087.20 | Div 0.23 0.46 | Feas 0.25 1.00 | Pen 2.12 0.10
It   5500   5502 | T(s) 1.95 | Feas 45 1074.34 1091.40 | Inf 65 1073.49 1082.79 | Div 0.39 0.31 | Feas 0.28 1.00 | Pen 2.20 0.10
It   6000   6002 | T(s) 2.11 | Feas 32 1074.34 1092.52 | Inf 53 1073.58 1079.56 | Div 0.44 0.24 | Feas 0.22 1.00 | Pen 2.24 0.10
It   6500   6502 | T(s) 2.28 | Feas 65 1074.34 1083.62 | Inf 42 1072.98 1080.91 | Div 0.28 0.37 | Feas 0.20 1.00 | Pen 1.95 0.10
It   7000   7002 | T(s) 2.46 | Feas 38 1074.34 1090.01 | Inf 37 1073.76 1088.60 | Div 0.39 0.39 | Feas 0.13 1.00 | Pen 2.34 0.10
It   7500   7502 | T(s) 2.63 | Feas 48 1074.34 1088.63 | Inf 25 1073.86 1091.31 | Div 0.36 0.46 | Feas 0.10 1.00 | Pen 2.38 0.10
It   8000   8002 | T(s) 2.80 | Feas 32 1074.34 1093.79 | Inf 37 1073.22 1082.90 | Div 0.44 0.38 | Feas 0.32 1.00 | Pen 2.07 0.10
It   8500   8502 | T(s) 2.96 | Feas 55 1074.34 1083.03 | Inf 55 1072.40 1077.17 | Div 0.24 0.31 | Feas 0.27 1.00 | Pen 1.79 0.10
It   9000   9002 | T(s) 3.14 | Feas 43 1074.34 1092.27 | Inf 25 1073.48 1094.03 | Div 0.40 0.47 | Feas 0.09 1.00 | Pen 2.19 0.10
It   9500   9502 | T(s) 3.31 | Feas 42 1074.34 1091.58 | Inf 60 1073.65 1081.51 | Div 0.39 0.28 | Feas 0.24 1.00 | Pen 2.28 0.10
It  10000  10002 | T(s) 3.48 | Feas 43 1074.34 1088.65 | Inf 43 1073.74 1084.67 | Div 0.36 0.37 | Feas 0.23 1.00 | Pen 2.33 0.10
It  10500  10502 | T(s) 3.64 | Feas 31 1074.34 1094.74 | Inf 52 1073.05 1080.46 | Div 0.44 0.34 | Feas 0.21 1.00 | Pen 1.98 0.10
It  11000  11002 | T(s) 3.81 | Feas 39 1074.34 1090.95 | Inf 25 1069.68 1085.34 | Div 0.39 0.48 | Feas 0.33 1.00 | Pen 1.71 0.10
It  11500  11502 | T(s) 3.98 | Feas 64 1074.34 1085.03 | Inf 36 1073.37 1084.64 | Div 0.28 0.37 | Feas 0.05 1.00 | Pen 2.14 0.10
It  12000  12002 | T(s) 4.16 | Feas 41 1074.34 1089.62 | Inf 47 1074.44 1085.21 | Div 0.38 0.32 | Feas 0.11 1.00 | Pen 2.67 0.10
It  12500  12502 | T(s) 4.32 | Feas 57 1074.34 1080.43 | Inf 54 1072.95 1080.25 | Div 0.20 0.35 | Feas 0.19 1.00 | Pen 1.93 0.10
It  13000  13002 | T(s) 4.49 | Feas 28 1074.34 1096.81 | Inf 44 1073.03 1081.16 | Div 0.47 0.36 | Feas 0.19 1.00 | Pen 1.97 0.10
It  13500  13502 | T(s) 4.66 | Feas 61 1074.34 1082.03 | Inf 31 1073.11 1085.64 | Div 0.23 0.43 | Feas 0.28 1.00 | Pen 2.01 0.10
It  14000  14002 | T(s) 4.82 | Feas 54 1074.34 1083.71 | Inf 49 1073.11 1079.10 | Div 0.27 0.34 | Feas 0.25 1.00 | Pen 2.01 0.10
It  14500  14502 | T(s) 4.99 | Feas 47 1074.34 1084.07 | Inf 33 1073.91 1087.51 | Div 0.28 0.41 | Feas 0.25 1.00 | Pen 2.41 0.10
It  15000  15002 | T(s) 5.16 | Feas 39 1074.34 1089.08 | Inf 65 1073.27 1078.86 | Div 0.38 0.26 | Feas 0.16 1.00 | Pen 2.09 0.10
It  15500  15502 | T(s) 5.34 | Feas 41 1074.34 1086.75 | Inf 60 1073.36 1080.81 | Div 0.33 0.32 | Feas 0.19 1.00 | Pen 2.13 0.10
It  16000  16002 | T(s) 5.51 | Feas 53 1074.34 1087.32 | Inf 50 1073.44 1082.03 | Div 0.33 0.34 | Feas 0.17 1.00 | Pen 2.17 0.10
It  16500  16502 | T(s) 5.67 | Feas 41 1074.34 1091.38 | Inf 43 1073.53 1083.15 | Div 0.40 0.36 | Feas 0.20 1.00 | Pen 2.22 0.10
It  17000  17002 | T(s) 5.84 | Feas 61 1074.34 1079.99 | Inf 42 1073.71 1083.03 | Div 0.17 0.34 | Feas 0.19 1.00 | Pen 2.31 0.10
It  17500  17502 | T(s) 6.01 | Feas 28 1074.34 1097.81 | Inf 52 1066.90 1072.01 | Div 0.48 0.33 | Feas 0.28 1.00 | Pen 1.67 0.10
It  18000  18002 | T(s) 6.19 | Feas 39 1074.34 1093.27 | Inf 26 1073.17 1087.31 | Div 0.42 0.45 | Feas 0.03 1.00 | Pen 2.04 0.10
It  18500  18502 | T(s) 6.37 | Feas 35 1074.34 1094.57 | Inf 55 1073.25 1081.86 | Div 0.43 0.33 | Feas 0.25 1.00 | Pen 2.08 0.10
It  19000  19002 | T(s) 6.54 | Feas 41 1074.34 1091.34 | Inf 49 1073.42 1082.51 | Div 0.39 0.33 | Feas 0.09 1.00 | Pen 2.17 0.10
It  19500  19502 | T(s) 6.71 | Feas 41 1074.34 1090.01 | Inf 33 1073.42 1084.50 | Div 0.39 0.40 | Feas 0.23 1.00 | Pen 2.17 0.10
----- GENETIC ALGORITHM FINISHED AFTER 20000 ITERATIONS. TIME SPENT: 6.87926
----- WRITING BEST SOLUTION IN : baseline_results/cvrp_hgs/Vrp-Set-A-n48/Vrp-Set-A-n48-hgs/0.hgs1.tour
