experiment/data/hgs-res/Vrp-Set-A-n48/Vrp-Set-A-n48-hgs/0.hgs1.tour
Route #1: 14 17 47 10 2 41
Route #2: 16 33 46 13 30 21 29 28
Route #3: 45 27 15 42 11 4 24 9 34
Route #4: 37 3 20 26 39 8 7 40
Route #5: 6 22 25 19 38 36 32
Route #6: 18 35 44
Route #7: 12 5 1 31 43 23
Cost 1074.34
